Version identifier: 20.1.0.0 | 2020-11-10 | 9bedb6d68
CPXPARAM_Threads                                 1
CPXPARAM_TimeLimit                               7200
CPXPARAM_MIP_Tolerances_MIPGap                   0
Generic callback                                 0x60
1 of 1 MIP starts provided solutions.
MIP start 'm1' defined initial solution with objective 1690.0932.
Tried aggregator 1 time.
Reduced MIP has 1 rows, 501 columns, and 500 nonzeros.
Reduced MIP has 500 binaries, 0 generals, 0 SOSs, and 0 indicators.
Presolve time = 0.00 sec. (0.15 ticks)
Probing time = 0.00 sec. (0.05 ticks)
Tried aggregator 1 time.
Reduced MIP has 1 rows, 501 columns, and 500 nonzeros.
Reduced MIP has 500 binaries, 0 generals, 0 SOSs, and 0 indicators.
Presolve time = 0.00 sec. (0.15 ticks)
Probing time = 0.00 sec. (0.05 ticks)
MIP emphasis: balance optimality and feasibility.
MIP search method: dynamic search.
Parallel mode: none, using 1 thread.
Root relaxation solution time = 0.00 sec. (0.10 ticks)

        Nodes                                         Cuts/
   Node  Left     Objective  IInf  Best Integer    Best Bound    ItCnt     Gap

*     0+    0                         1690.0932     4368.0000           158.45%
      0     0     2343.0894     2     1690.0932     4368.0000        0  158.45%
      0     0     2257.4484     4     1690.0932 UserPurge2: 1       10   33.57%
      0     0     2100.2303     5     1690.0932 UserPurge2: 1       21   24.27%
      0     0     1949.8952     4     1690.0932 UserPurge2: 1       35   15.37%
      0     0     1903.1608     6     1690.0932 UserPurge2: 1       44   12.61%
      0     0     1888.7195     8     1690.0932 UserPurge2: 1       57   11.75%
      0     0     1870.5807     9     1690.0932 UserPurge2: 1       89   10.68%
      0     0     1858.8228    10     1690.0932 UserPurge2: 1      102    9.98%
      0     0     1848.5393    12     1690.0932 UserPurge2: 1      119    9.37%
      0     0     1833.7248    13     1690.0932 UserPurge2: 1      143    8.50%
      0     0     1829.1033    14     1690.0932 UserPurge2: 1      163    8.22%
      0     0     1826.5295    16     1690.0932 UserPurge2: 1      178    8.07%
      0     0     1823.1317    17     1690.0932 UserPurge2: 1      198    7.87%
      0     0     1811.5717    17     1690.0932 UserPurge2: 1      242    7.19%
      0     0     1805.0071    17     1690.0932 UserPurge2: 1      266    6.80%
      0     0     1801.8682    18     1690.0932 UserPurge1: 1      290    6.61%
      0     0     1797.0649    17     1690.0932 UserPurge2: 1      316    6.33%
      0     0     1795.6769    18     1690.0932 UserPurge1: 1      321    6.25%
      0     0     1793.1439    19     1690.0932 UserPurge2: 1      338    6.10%
      0     0     1792.6227    19     1690.0932 UserPurge1: 1      350    6.07%
      0     0     1792.5968    20     1690.0932 UserPurge1: 1      355    6.06%
      0     0     1784.0663    14     1690.0932 UserPurge2: 1      382    5.56%
      0     0     1779.8563    14     1690.0932 UserPurge2: 1      392    5.31%
      0     0     1778.1714    15     1690.0932 UserPurge2: 1      423    5.21%
      0     0     1776.3152    16     1690.0932 UserPurge2: 1      434    5.10%
      0     0     1773.6866    16     1690.0932 UserPurge2: 1      465    4.95%
      0     0     1770.2615    16     1690.0932 UserPurge2: 1      484    4.74%
      0     0     1767.5528    16     1690.0932 UserPurge2: 1      515    4.58%
      0     0     1765.7384    15     1690.0932 UserPurge2: 1      523    4.48%
      0     0     1763.7278    15     1690.0932 UserPurge2: 1      544    4.36%
      0     0     1762.3549    16     1690.0932 UserPurge2: 1      572    4.28%
      0     0     1760.6135    16     1690.0932 UserPurge2: 1      599    4.17%
      0     0     1758.0690    15     1690.0932 UserPurge2: 1      627    4.02%
      0     0     1757.0205    17     1690.0932 UserPurge2: 1      647    3.96%
      0     0     1756.0660    17     1690.0932 UserPurge2: 1      667    3.90%
      0     0     1754.9012    16     1690.0932 UserPurge2: 1      688    3.83%
      0     0     1754.0123    18     1690.0932 UserPurge2: 1      700    3.78%
      0     0     1750.4486    16     1690.0932 UserPurge2: 1      745    3.57%
      0     0     1748.9521    17     1690.0932 UserPurge2: 1      764    3.48%
      0     0     1748.0196    17     1690.0932 UserPurge2: 1      786    3.43%
      0     0     1746.0975    17     1690.0932 UserPurge2: 1      800    3.31%
      0     0     1744.6023    18     1690.0932 UserPurge2: 1      820    3.23%
      0     0     1742.9326    17     1690.0932 UserPurge2: 1      843    3.13%
      0     0     1742.6120    18     1690.0932 UserPurge2: 1      849    3.11%
      0     0     1742.4035    19     1690.0932 UserPurge2: 1      861    3.10%
      0     0     1741.5118    19     1690.0932 UserPurge2: 1      885    3.04%
      0     0     1739.5146    17     1690.0932 UserPurge2: 1      916    2.92%
      0     0     1738.6396    18     1690.0932 UserPurge2: 1      934    2.87%
      0     0     1737.6707    19     1690.0932 UserPurge2: 1      950    2.82%
      0     0     1736.9927    18     1690.0932 UserPurge2: 1      967    2.77%
      0     0     1736.1276    18     1690.0932 UserPurge2: 1      989    2.72%
      0     0     1735.4497    18     1690.0932 UserPurge2: 1     1010    2.68%
      0     0     1734.3505    18     1690.0932 UserPurge2: 1     1035    2.62%
      0     0     1733.5775    17     1690.0932 UserPurge2: 1     1047    2.57%
      0     0     1733.4103    18     1690.0932 UserPurge2: 1     1055    2.56%
      0     0     1732.1293    19     1690.0932 UserPurge2: 1     1076    2.49%
      0     0     1731.8259    18     1690.0932 UserPurge2: 1     1087    2.47%
      0     0     1731.3666    18     1690.0932 UserPurge2: 1     1098    2.44%
      0     0     1730.8822    19     1690.0932 UserPurge2: 1     1116    2.41%
      0     0     1730.1079    19     1690.0932 UserPurge2: 1     1133    2.37%
      0     0     1729.8828    18     1690.0932 UserPurge2: 1     1140    2.35%
      0     0     1729.5599    17     1690.0932 UserPurge2: 1     1155    2.34%
      0     0     1729.3429    19     1690.0932 UserPurge2: 1     1170    2.32%
      0     0     1728.9585    19     1690.0932 UserPurge2: 1     1185    2.30%
      0     0     1728.7286    20     1690.0932 UserPurge2: 1     1195    2.29%
      0     0     1728.5495    21     1690.0932 UserPurge2: 1     1206    2.28%
      0     0     1728.1297    22     1690.0932 UserPurge2: 1     1240    2.25%
      0     0     1728.0309    22     1690.0932 UserPurge2: 1     1247    2.24%
      0     0     1727.6699    22     1690.0932 UserPurge2: 1     1265    2.22%
      0     0     1726.7385    20     1690.0932 UserPurge2: 1     1288    2.17%
      0     0     1726.2204    19     1690.0932 UserPurge2: 1     1304    2.14%
      0     0     1725.3012    19     1690.0932 UserPurge2: 1     1332    2.08%
      0     0     1725.0260    19     1690.0932 UserPurge2: 1     1345    2.07%
      0     0     1724.7110    20     1690.0932 UserPurge2: 1     1357    2.05%
      0     0     1724.3353    20     1690.0932 UserPurge2: 1     1373    2.03%
      0     0     1724.2575    20     1690.0932 UserPurge2: 1     1382    2.02%
      0     0     1723.4411    21     1690.0932 UserPurge2: 1     1408    1.97%
      0     0     1722.2397    20     1690.0932 UserPurge2: 1     1429    1.90%
      0     0     1721.6673    20     1690.0932 UserPurge2: 1     1446    1.87%
      0     0     1720.9354    19     1690.0932 UserPurge2: 1     1469    1.82%
      0     0     1720.7767    19     1690.0932 UserPurge2: 1     1478    1.82%
      0     0     1720.4060    20     1690.0932 UserPurge2: 1     1488    1.79%
      0     0     1720.0788    21     1690.0932 UserPurge2: 1     1501    1.77%
      0     0     1719.7177    21     1690.0932 UserPurge2: 1     1518    1.75%
      0     0     1719.2193    21     1690.0932 UserPurge2: 1     1536    1.72%
      0     0     1719.0643    22     1690.0932 UserPurge2: 1     1550    1.71%
      0     0     1718.6062    22     1690.0932 UserPurge2: 1     1566    1.69%
      0     0     1718.1805    22     1690.0932 UserPurge2: 1     1582    1.66%
      0     0     1717.9079    23     1690.0932 UserPurge2: 1     1600    1.65%
      0     0     1717.7686    24     1690.0932 UserPurge2: 1     1612    1.64%
      0     0     1717.3850    25     1690.0932 UserPurge2: 1     1628    1.61%
      0     0     1717.0423    25     1690.0932 UserPurge2: 1     1652    1.59%
      0     0     1716.7205    24     1690.0932 UserPurge2: 1     1675    1.58%
      0     0     1716.4708    24     1690.0932 UserPurge2: 1     1693    1.56%
      0     0     1716.1110    24     1690.0932 UserPurge2: 1     1710    1.54%
      0     0     1715.6074    24     1690.0932 UserPurge2: 1     1738    1.51%
      0     0     1715.3886    23     1690.0932 UserPurge2: 1     1759    1.50%
      0     0     1715.2958    24     1690.0932 UserPurge2: 1     1776    1.49%
      0     0     1715.1460    25     1690.0932 UserPurge2: 1     1788    1.48%
      0     0     1714.5774    23     1690.0932 UserPurge2: 1     1819    1.45%
      0     0     1714.4783    21     1690.0932 UserPurge2: 1     1833    1.44%
      0     0     1714.2555    22     1690.0932 UserPurge2: 1     1861    1.43%
      0     0     1714.0546    23     1690.0932 UserPurge2: 1     1881    1.42%
      0     0     1713.9821    23     1690.0932 UserPurge2: 1     1893    1.41%
      0     0     1713.7927    24     1690.0932 UserPurge2: 1     1921    1.40%
      0     0     1713.3698    23     1690.0932 UserPurge2: 1     1951    1.38%
      0     0     1713.1484    24     1690.0932 UserPurge2: 1     1969    1.36%
      0     0     1713.0031    24     1690.0932 UserPurge2: 1     1983    1.36%
      0     0     1712.7212    24     1690.0932 UserPurge2: 1     2005    1.34%
      0     0     1712.4955    24     1690.0932 UserPurge2: 1     2025    1.33%
      0     0     1712.1036    23     1690.0932 UserPurge2: 1     2051    1.30%
      0     0     1711.9398    23     1690.0932 UserPurge2: 1     2078    1.29%
      0     0     1711.6765    23     1690.0932 UserPurge2: 1     2098    1.28%
      0     0     1711.5424    22     1690.0932 UserPurge2: 1     2113    1.27%
      0     0     1711.5260    23     1690.0932 UserPurge2: 1     2118    1.27%
      0     0     1711.5094    24     1690.0932 UserPurge2: 1     2127    1.27%
      0     0     1711.4335    25     1690.0932 UserPurge2: 1     2139    1.26%
      0     0     1711.3981    26     1690.0932 UserPurge2: 1     2149    1.26%
      0     0     1711.3100    25     1690.0932 UserPurge2: 1     2168    1.26%
      0     0     1711.0635    24     1690.0932 UserPurge2: 1     2196    1.24%
      0     0     1710.8816    24     1690.0932 UserPurge2: 1     2220    1.23%
      0     0     1710.7436    25     1690.0932 UserPurge2: 1     2242    1.22%
      0     0     1710.6834    26     1690.0932 UserPurge2: 1     2258    1.22%
      0     0     1710.5270    25     1690.0932 UserPurge2: 1     2277    1.21%
      0     0     1710.3769    24     1690.0932 UserPurge2: 1     2307    1.20%
      0     0     1710.2952    25     1690.0932 UserPurge2: 1     2317    1.20%
      0     0     1710.1881    26     1690.0932 UserPurge2: 1     2340    1.19%
      0     0     1710.0751    27     1690.0932 UserPurge2: 1     2359    1.18%
      0     0     1709.9614    28     1690.0932 UserPurge2: 1     2373    1.18%
      0     0     1709.7431    28     1690.0932 UserPurge2: 1     2403    1.16%
      0     0     1709.5380    27     1690.0932 UserPurge2: 1     2420    1.15%
      0     0     1709.2815    26     1690.0932 UserPurge2: 1     2441    1.14%
      0     0     1708.7915    24     1690.0932 UserPurge2: 1     2464    1.11%
      0     0     1708.6107    24     1690.0932 UserPurge2: 1     2478    1.10%
      0     0     1708.4637    25     1690.0932 UserPurge2: 1     2491    1.09%
      0     0     1708.3457    26     1690.0932 UserPurge2: 1     2510    1.08%
      0     0     1708.2589    26     1690.0932 UserPurge2: 1     2531    1.07%
      0     0     1708.2173    27     1690.0932 UserPurge2: 1     2539    1.07%
      0     0     1708.0807    28     1690.0932 UserPurge2: 1     2558    1.06%
      0     0     1708.0040    29     1690.0932 UserPurge2: 1     2571    1.06%
      0     0     1707.9005    28     1690.0932 UserPurge2: 1     2587    1.05%
      0     0     1707.8475    29     1690.0932 UserPurge2: 1     2599    1.05%
      0     0     1707.7811    29     1690.0932 UserPurge2: 1     2616    1.05%
      0     0     1707.6137    29     1690.0932 UserPurge2: 1     2635    1.04%
      0     0     1707.5239    30     1690.0932 UserPurge2: 1     2652    1.03%
      0     0     1707.1662    28     1690.0932 UserPurge2: 1     2694    1.01%
      0     0     1706.9566    28     1690.0932 UserPurge2: 1     2716    1.00%
      0     0     1706.8445    29     1690.0932 UserPurge2: 1     2732    0.99%
      0     0     1706.5154    28     1690.0932 UserPurge2: 1     2757    0.97%
      0     0     1706.0628    28     1690.0932 UserPurge2: 1     2777    0.94%
      0     0     1705.9499    28     1690.0932 UserPurge2: 1     2795    0.94%
      0     0     1705.5604    25     1690.0932 UserPurge2: 1     2820    0.92%
      0     0     1705.3895    25     1690.0932 UserPurge2: 1     2840    0.91%
      0     0     1705.2496    26     1690.0932 UserPurge2: 1     2851    0.90%
      0     0     1705.1916    27     1690.0932 UserPurge2: 1     2866    0.89%
      0     0     1705.1179    27     1690.0932 UserPurge2: 1     2879    0.89%
      0     0     1705.0909    28     1690.0932 UserPurge2: 1     2889    0.89%
      0     0     1704.7094    27     1690.0932 UserPurge2: 1     2931    0.86%
      0     0     1704.3767    27     1690.0932 UserPurge2: 1     2946    0.85%
      0     0     1704.2415    27     1690.0932 UserPurge2: 1     2958    0.84%
      0     0     1704.0704    26     1690.0932 UserPurge2: 1     2983    0.83%
      0     0     1704.0132    25     1690.0932 UserPurge2: 1     3000    0.82%
      0     0     1703.9856    26     1690.0932 UserPurge2: 1     3010    0.82%
      0     0     1703.9591    27     1690.0932 UserPurge2: 1     3021    0.82%
      0     0     1703.9378    28     1690.0932 UserPurge2: 1     3045    0.82%
      0     0     1703.8860    29     1690.0932 UserPurge2: 1     3063    0.82%
      0     0     1703.7954    28     1690.0932 UserPurge2: 1     3084    0.81%
      0     0     1703.7388    28     1690.0932 UserPurge2: 1     3108    0.81%
      0     0     1703.6902    29     1690.0932 UserPurge2: 1     3125    0.80%
      0     0     1703.6800    30     1690.0932 UserPurge2: 1     3135    0.80%
      0     0     1703.5284    30     1690.0932 UserPurge2: 1     3168    0.79%
      0     0     1703.4590    31     1690.0932 UserPurge2: 1     3192    0.79%
      0     0     1703.4154    30     1690.0932 UserPurge2: 1     3205    0.79%
      0     0     1703.3713    31     1690.0932 UserPurge2: 1     3218    0.79%
      0     0     1703.2761    29     1690.0932 UserPurge2: 1     3239    0.78%
      0     0     1703.2453    30     1690.0932 UserPurge2: 1     3252    0.78%
      0     0     1703.1748    30     1690.0932 UserPurge2: 1     3281    0.77%
      0     0     1703.0985    31     1690.0932 UserPurge2: 1     3302    0.77%
      0     0     1703.0145    30     1690.0932 UserPurge2: 1     3334    0.76%
      0     0     1702.8547    30     1690.0932 UserPurge2: 1     3353    0.76%
      0     0     1702.8199    31     1690.0932 UserPurge2: 1     3364    0.75%
      0     0     1702.7470    31     1690.0932 UserPurge2: 1     3387    0.75%
      0     0     1702.6323    30     1690.0932 UserPurge2: 1     3407    0.74%
      0     0     1702.5966    30     1690.0932 UserPurge2: 1     3426    0.74%
      0     0     1702.5196    30     1690.0932 UserPurge2: 1     3454    0.74%
      0     0     1702.5039    31     1690.0932 UserPurge2: 1     3464    0.73%
      0     0     1702.4907    32     1690.0932 UserPurge2: 1     3481    0.73%
      0     0     1702.4325    30     1690.0932 UserPurge2: 1     3515    0.73%
      0     0     1702.3761    31     1690.0932 UserPurge2: 1     3528    0.73%
      0     0     1702.3141    32     1690.0932 UserPurge2: 1     3546    0.72%
      0     0     1702.2042    30     1690.0932 UserPurge2: 1     3569    0.72%
      0     0     1702.1528    31     1690.0932 UserPurge2: 1     3582    0.71%
      0     0     1702.0780    30     1690.0932 UserPurge2: 1     3600    0.71%
      0     0     1702.0657    31     1690.0932 UserPurge2: 1     3607    0.71%
      0     0     1702.0445    31     1690.0932 UserPurge2: 1     3619    0.71%
      0     0     1701.9977    32     1690.0932 UserPurge2: 1     3645    0.70%
      0     0     1701.9599    32     1690.0932 UserPurge2: 1     3658    0.70%
      0     0     1701.9520    33     1690.0932 UserPurge2: 1     3669    0.70%
      0     0     1701.8929    33     1690.0932 UserPurge2: 1     3689    0.70%
      0     0     1701.7812    32     1690.0932 UserPurge2: 1     3709    0.69%
      0     0     1701.6559    29     1690.0932 UserPurge2: 1     3736    0.68%
      0     0     1701.5957    30     1690.0932 UserPurge2: 1     3754    0.68%
      0     0     1701.5065    31     1690.0932 UserPurge2: 1     3778    0.68%
      0     0     1701.4414    32     1690.0932 UserPurge2: 1     3801    0.67%
      0     0     1701.3910    32     1690.0932 UserPurge2: 1     3819    0.67%
      0     0     1701.3395    32     1690.0932 UserPurge2: 1     3840    0.67%
      0     0     1701.3074    32     1690.0932 UserPurge2: 1     3851    0.66%
      0     0     1701.2489    32     1690.0932 UserPurge2: 1     3874    0.66%
      0     0     1701.1598    32     1690.0932 UserPurge2: 1     3901    0.65%
      0     0     1701.0928    32     1690.0932 UserPurge2: 1     3923    0.65%
      0     0     1701.0232    32     1690.0932 UserPurge2: 1     3948    0.65%
      0     0     1700.9758    32     1690.0932 UserPurge2: 1     3964    0.64%
      0     0     1700.9512    33     1690.0932 UserPurge2: 1     3978    0.64%
      0     0     1700.8921    33     1690.0932 UserPurge2: 1     3995    0.64%
      0     0     1700.8501    32     1690.0932 UserPurge2: 1     4009    0.64%
      0     0     1700.8147    33     1690.0932 UserPurge2: 1     4026    0.63%
      0     0     1700.7818    32     1690.0932 UserPurge2: 1     4048    0.63%
      0     0     1700.7572    33     1690.0932 UserPurge2: 1     4064    0.63%
*     0+    0                         1691.4405     1700.7572             0.55%
      0     0     1700.7197    33     1691.4405 UserPurge2: 1     4085    0.55%
      0     0     1700.6735    34     1691.4405 UserPurge2: 1     4103    0.55%
      0     0     1700.6157    33     1691.4405 UserPurge2: 1     4125    0.54%
      0     0     1700.5534    32     1691.4405 UserPurge2: 1     4155    0.54%
      0     0     1700.5279    33     1691.4405 UserPurge2: 1     4174    0.54%
      0     0     1700.5076    33     1691.4405 UserPurge2: 1     4189    0.54%
      0     0     1700.4964    34     1691.4405 UserPurge2: 1     4195    0.54%
      0     0     1700.4280    33     1691.4405 UserPurge2: 1     4224    0.53%
      0     0     1700.3884    34     1691.4405 UserPurge2: 1     4241    0.53%
      0     0     1700.3148    35     1691.4405 UserPurge2: 1     4271    0.52%
      0     0     1700.2123    35     1691.4405 UserPurge2: 1     4302    0.52%
      0     0     1700.1045    35     1691.4405 UserPurge2: 1     4321    0.51%
      0     0     1699.9876    33     1691.4405 UserPurge2: 1     4343    0.51%
      0     0     1699.8509    33     1691.4405 UserPurge2: 1     4361    0.50%
      0     0     1699.7505    33     1691.4405 UserPurge2: 1     4382    0.49%
      0     0     1699.6703    33     1691.4405 UserPurge2: 1     4407    0.49%
      0     0     1699.5806    31     1691.4405 UserPurge2: 1     4425    0.48%
      0     0     1699.4940    31     1691.4405 UserPurge2: 1     4438    0.48%
      0     0     1699.3723    31     1691.4405 UserPurge2: 1     4460    0.47%
      0     0     1699.3219    31     1691.4405 UserPurge2: 1     4475    0.47%
      0     0     1699.3074    32     1691.4405 UserPurge2: 1     4489    0.47%
      0     0     1699.2740    32     1691.4405 UserPurge2: 1     4503    0.46%
      0     0     1699.2111    32     1691.4405 UserPurge2: 1     4522    0.46%
      0     0     1699.1584    32     1691.4405 UserPurge2: 1     4546    0.46%
      0     0     1699.1160    33     1691.4405 UserPurge2: 1     4568    0.45%
      0     0     1699.0892    33     1691.4405 UserPurge2: 1     4579    0.45%
      0     0     1699.0645    33     1691.4405 UserPurge2: 1     4596    0.45%
      0     0     1699.0512    34     1691.4405 UserPurge2: 1     4608    0.45%
      0     0     1699.0402    35     1691.4405 UserPurge2: 1     4625    0.45%
      0     0     1698.9742    34     1691.4405 UserPurge2: 1     4657    0.45%
      0     0     1698.9335    34     1691.4405 UserPurge2: 1     4674    0.44%
      0     0     1698.8969    34     1691.4405 UserPurge2: 1     4690    0.44%
      0     0     1698.8724    35     1691.4405 UserPurge2: 1     4702    0.44%
      0     0     1698.8348    36     1691.4405 UserPurge2: 1     4721    0.44%
      0     0     1698.7596    34     1691.4405 UserPurge2: 1     4746    0.43%
      0     0     1698.6069    34     1691.4405 UserPurge2: 1     4778    0.42%
      0     0     1698.4479    33     1691.4405 UserPurge2: 1     4808    0.41%
      0     0     1698.2892    30     1691.4405 UserPurge2: 1     4844    0.40%
      0     0     1698.2125    30     1691.4405 UserPurge2: 1     4861    0.40%
      0     0     1698.1705    30     1691.4405 UserPurge2: 1     4874    0.40%
      0     0     1698.1456    28     1691.4405 UserPurge2: 1     4892    0.40%
      0     0     1698.1191    29     1691.4405 UserPurge2: 1     4908    0.39%
      0     0     1698.1056    30     1691.4405 UserPurge2: 1     4918    0.39%
      0     0     1698.0893    31     1691.4405 UserPurge2: 1     4929    0.39%
      0     0     1698.0737    31     1691.4405 UserPurge2: 1     4940    0.39%
      0     0     1698.0563    32     1691.4405 UserPurge2: 1     4952    0.39%
      0     0     1698.0473    33     1691.4405 UserPurge2: 1     4966    0.39%
      0     0     1698.0360    34     1691.4405 UserPurge2: 1     4979    0.39%
      0     0     1697.9981    33     1691.4405 UserPurge2: 1     4997    0.39%
      0     0     1697.9691    32     1691.4405 UserPurge2: 1     5006    0.39%
      0     0     1697.9564    31     1691.4405 UserPurge2: 1     5025    0.39%
      0     0     1697.9546    32     1691.4405 UserPurge2: 1     5035    0.39%
      0     0     1697.9477    33     1691.4405 UserPurge2: 1     5048    0.38%
      0     0     1697.9318    32     1691.4405 UserPurge2: 1     5067    0.38%
      0     0     1697.9213    30     1691.4405 UserPurge2: 1     5085    0.38%
      0     0     1697.9004    30     1691.4405 UserPurge2: 1     5104    0.38%
      0     0     1697.8959    31     1691.4405 UserPurge2: 1     5110    0.38%
      0     0     1697.8850    32     1691.4405 UserPurge2: 1     5118    0.38%
      0     0     1697.8682    33     1691.4405 UserPurge2: 1     5132    0.38%
      0     0     1697.8529    32     1691.4405 UserPurge2: 1     5146    0.38%
*     0+    0                         1692.4504     1697.8529             0.32%

Repeating presolve.
Tried aggregator 1 time.
MIP Presolve eliminated 0 rows and 138 columns.
Reduced MIP has 1 rows, 363 columns, and 362 nonzeros.
Reduced MIP has 362 binaries, 0 generals, 0 SOSs, and 0 indicators.
Presolve time = 0.00 sec. (0.14 ticks)
Probing time = 0.00 sec. (0.04 ticks)
Tried aggregator 1 time.
Reduced MIP has 1 rows, 363 columns, and 362 nonzeros.
Reduced MIP has 362 binaries, 0 generals, 0 SOSs, and 0 indicators.
Presolve time = 0.00 sec. (0.11 ticks)
Represolve time = 0.02 sec. (13.92 ticks)
Probing time = 0.00 sec. (0.04 ticks)
MIP emphasis: balance optimality and feasibility.
MIP search method: dynamic search.
Parallel mode: none, using 1 thread.
Root relaxation solution time = 0.00 sec. (8.47 ticks)

        Nodes                                         Cuts/
   Node  Left     Objective  IInf  Best Integer    Best Bound    ItCnt     Gap

*     0+    0                         1692.4504     1697.8529             0.32%
      0     0     1697.8529    32     1692.4504     1697.8529     5253    0.32%
      0     0     1697.8479    33     1692.4504 UserPurge2: 1     5260    0.32%
      0     0     1697.8425    34     1692.4504 UserPurge2: 1     5269    0.32%
      0     0     1697.8303    34     1692.4504 UserPurge2: 1     5293    0.32%
      0     0     1697.7943    34     1692.4504 UserPurge2: 1     5320    0.32%
      0     0     1697.7817    33     1692.4504 UserPurge2: 1     5335    0.32%
      0     0     1697.7581    34     1692.4504 UserPurge2: 1     5352    0.31%
      0     0     1697.7246    34     1692.4504 UserPurge2: 1     5374    0.31%
      0     0     1697.7058    34     1692.4504 UserPurge2: 1     5395    0.31%
      0     0     1697.6909    35     1692.4504 UserPurge2: 1     5413    0.31%
      0     0     1697.6853    35     1692.4504 UserPurge2: 1     5432    0.31%
      0     0     1697.6750    36     1692.4504 UserPurge2: 1     5452    0.31%
      0     0     1697.6708    37     1692.4504 UserPurge2: 1     5464    0.31%
      0     0     1697.6541    37     1692.4504 UserPurge2: 1     5486    0.31%
      0     0     1697.6249    35     1692.4504 UserPurge2: 1     5508    0.31%
      0     0     1697.5800    34     1692.4504 UserPurge2: 1     5525    0.30%
      0     0     1697.5495    35     1692.4504 UserPurge2: 1     5540    0.30%
      0     0     1697.5060    34     1692.4504 UserPurge2: 1     5567    0.30%
      0     0     1697.4937    33     1692.4504 UserPurge2: 1     5580    0.30%
      0     0     1697.4646    34     1692.4504 UserPurge2: 1     5598    0.30%
      0     0     1697.4388    35     1692.4504 UserPurge2: 1     5612    0.29%
      0     0     1697.3957    34     1692.4504 UserPurge2: 1     5630    0.29%
      0     0     1697.3827    35     1692.4504 UserPurge2: 1     5640    0.29%
      0     0     1697.3561    35     1692.4504 UserPurge2: 1     5654    0.29%
      0     0     1697.3474    36     1692.4504 UserPurge2: 1     5667    0.29%
      0     0     1697.3336    37     1692.4504 UserPurge2: 1     5675    0.29%
      0     0     1697.3233    38     1692.4504 UserPurge2: 1     5688    0.29%
      0     0     1697.3068    39     1692.4504 UserPurge2: 1     5705    0.29%
      0     0     1697.2521    38     1692.4504 UserPurge2: 1     5735    0.28%
      0     0     1697.1499    36     1692.4504 UserPurge2: 1     5751    0.28%
      0     0     1697.0581    34     1692.4504 UserPurge2: 1     5787    0.27%
      0     0     1697.0183    33     1692.4504 UserPurge2: 1     5802    0.27%
      0     0     1696.9884    34     1692.4504 UserPurge2: 1     5810    0.27%
      0     0     1696.9660    35     1692.4504 UserPurge2: 1     5817    0.27%
      0     0     1696.9486    36     1692.4504 UserPurge2: 1     5828    0.27%
      0     0     1696.9270    36     1692.4504 UserPurge2: 1     5840    0.26%
      0     0     1696.9199    37     1692.4504 UserPurge2: 1     5849    0.26%
      0     0     1696.9092    38     1692.4504 UserPurge2: 1     5860    0.26%
      0     0     1696.8592    36     1692.4504 UserPurge2: 1     5889    0.26%
      0     0     1696.7947    34     1692.4504 UserPurge2: 1     5910    0.26%
      0     0     1696.7786    34     1692.4504 UserPurge2: 1     5926    0.26%
      0     0     1696.7454    34     1692.4504 UserPurge2: 1     5940    0.25%
      0     0     1696.7148    35     1692.4504 UserPurge2: 1     5956    0.25%
      0     0     1696.6865    34     1692.4504 UserPurge2: 1     5973    0.25%
      0     0     1696.6676    34     1692.4504 UserPurge2: 1     5991    0.25%
      0     0     1696.6368    35     1692.4504 UserPurge2: 1     6005    0.25%
      0     0     1696.6154    36     1692.4504 UserPurge2: 1     6015    0.25%
      0     0     1696.5201    31     1692.4504 UserPurge2: 1     6045    0.24%
      0     0     1696.4739    32     1692.4504 UserPurge2: 1     6063    0.24%
      0     0     1696.4502    31     1692.4504 UserPurge2: 1     6082    0.24%
      0     0     1696.4199    32     1692.4504 UserPurge2: 1     6094    0.23%
      0     0     1696.3915    33     1692.4504 UserPurge2: 1     6108    0.23%
      0     0     1696.3558    32     1692.4504 UserPurge2: 1     6126    0.23%
      0     0     1696.3368    33     1692.4504 UserPurge2: 1     6139    0.23%
      0     0     1696.3328    34     1692.4504 UserPurge2: 1     6147    0.23%
      0     0     1696.3165    35     1692.4504 UserPurge2: 1     6166    0.23%
      0     0     1696.2903    36     1692.4504 UserPurge2: 1     6188    0.23%
      0     0     1696.2587    35     1692.4504 UserPurge2: 1     6209    0.23%
      0     0     1696.2336    34     1692.4504 UserPurge2: 1     6232    0.22%
      0     0     1696.2179    33     1692.4504 UserPurge2: 1     6244    0.22%
      0     0     1696.2092    34     1692.4504 UserPurge2: 1     6254    0.22%
*     0+    0                         1692.5098     1696.2092             0.22%
      0     0     1696.1957    35     1692.5098 UserPurge2: 1     6272    0.22%
      0     0     1696.1653    36     1692.5098 UserPurge2: 1     6297    0.22%
      0     0     1696.1535    34     1692.5098 UserPurge2: 1     6318    0.22%
      0     0     1696.1397    35     1692.5098 UserPurge2: 1     6337    0.21%
      0     0     1696.1200    36     1692.5098 UserPurge2: 1     6352    0.21%
      0     0     1696.1034    35     1692.5098 UserPurge2: 1     6364    0.21%
      0     0     1696.0793    35     1692.5098 UserPurge2: 1     6387    0.21%
      0     0     1696.0475    34     1692.5098 UserPurge2: 1     6405    0.21%
      0     0     1696.0355    35     1692.5098 UserPurge2: 1     6419    0.21%
      0     0     1696.0283    36     1692.5098 UserPurge2: 1     6438    0.21%
      0     0     1696.0245    37     1692.5098 UserPurge2: 1     6447    0.21%
      0     0     1696.0168    38     1692.5098 UserPurge2: 1     6461    0.21%
      0     0     1696.0122    39     1692.5098 UserPurge2: 1     6470    0.21%
      0     0     1696.0042    39     1692.5098 UserPurge2: 1     6483    0.21%
      0     0     1695.9721    38     1692.5098 UserPurge2: 1     6512    0.20%
      0     0     1695.9368    37     1692.5098 UserPurge2: 1     6529    0.20%
      0     0     1695.9088    37     1692.5098 UserPurge2: 1     6549    0.20%
      0     0     1695.8788    37     1692.5098 UserPurge2: 1     6568    0.20%
      0     0     1695.8646    37     1692.5098 UserPurge2: 1     6586    0.20%
      0     0     1695.8509    38     1692.5098 UserPurge2: 1     6605    0.20%
      0     0     1695.8335    38     1692.5098 UserPurge2: 1     6623    0.20%
      0     0     1695.7829    38     1692.5098 UserPurge2: 1     6648    0.19%
      0     0     1695.7666    38     1692.5098 UserPurge2: 1     6659    0.19%
      0     0     1695.7524    39     1692.5098 UserPurge2: 1     6669    0.19%
      0     0     1695.7392    39     1692.5098 UserPurge2: 1     6679    0.19%
      0     0     1695.7270    40     1692.5098 UserPurge2: 1     6696    0.19%
      0     0     1695.6687    39     1692.5098 UserPurge2: 1     6725    0.19%
      0     0     1695.6360    36     1692.5098 UserPurge2: 1     6746    0.18%
      0     0     1695.6022    36     1692.5098 UserPurge2: 1     6767    0.18%
      0     0     1695.5797    35     1692.5098 UserPurge2: 1     6788    0.18%
      0     0     1695.5691    36     1692.5098 UserPurge2: 1     6797    0.18%
      0     0     1695.5376    36     1692.5098 UserPurge2: 1     6817    0.18%
      0     0     1695.5248    35     1692.5098 UserPurge2: 1     6829    0.18%
      0     0     1695.5150    36     1692.5098 UserPurge2: 1     6842    0.18%
      0     0     1695.4998    36     1692.5098 UserPurge2: 1     6857    0.18%
      0     0     1695.4825    36     1692.5098 UserPurge2: 1     6878    0.18%
      0     0     1695.4754    36     1692.5098 UserPurge2: 1     6892    0.18%
      0     0     1695.4714    37     1692.5098 UserPurge2: 1     6901    0.17%
      0     0     1695.4685    38     1692.5098 UserPurge2: 1     6907    0.17%
      0     0     1695.4591    39     1692.5098 UserPurge2: 1     6921    0.17%
      0     0     1695.4349    39     1692.5098 UserPurge2: 1     6941    0.17%
      0     0     1695.4248    39     1692.5098 UserPurge2: 1     6954    0.17%
      0     0     1695.4142    38     1692.5098 UserPurge2: 1     6967    0.17%
      0     0     1695.4101    38     1692.5098 UserPurge2: 1     6975    0.17%
      0     0     1695.3836    37     1692.5098 UserPurge2: 1     7006    0.17%
      0     0     1695.3559    36     1692.5098 UserPurge2: 1     7036    0.17%
      0     0     1695.3456    37     1692.5098 UserPurge2: 1     7049    0.17%
      0     0     1695.3352    38     1692.5098 UserPurge2: 1     7061    0.17%
      0     0     1695.3314    39     1692.5098 UserPurge2: 1     7070    0.17%
      0     0     1695.3186    38     1692.5098 UserPurge2: 1     7083    0.17%
      0     0     1695.3027    37     1692.5098 UserPurge2: 1     7096    0.17%
      0     0     1695.2789    35     1692.5098 UserPurge2: 1     7112    0.16%
      0     0     1695.2686    36     1692.5098 UserPurge2: 1     7124    0.16%
      0     0     1695.2618    37     1692.5098 UserPurge2: 1     7135    0.16%
      0     0     1695.2532    38     1692.5098 UserPurge2: 1     7144    0.16%
      0     0     1695.2456    39     1692.5098 UserPurge2: 1     7161    0.16%
      0     0     1695.2437    39     1692.5098 UserPurge2: 1     7172    0.16%
*     0+    0                         1693.0809     1695.2437             0.13%
      0     0     1695.2383    40     1693.0809 UserPurge2: 1     7185    0.13%
      0     0     1695.2295    41     1693.0809 UserPurge2: 1     7201    0.13%
      0     0     1695.1595    38     1693.0809 UserPurge2: 1     7234    0.12%
      0     0     1695.1389    38     1693.0809 UserPurge2: 1     7244    0.12%
      0     0     1695.0913    35     1693.0809 UserPurge2: 1     7270    0.12%
      0     0     1695.0676    35     1693.0809 UserPurge2: 1     7288    0.12%
      0     0     1695.0485    36     1693.0809 UserPurge2: 1     7304    0.12%
      0     0     1695.0185    35     1693.0809 UserPurge2: 1     7322    0.11%
*     0+    0                         1693.3004     1695.0185             0.10%
      0     0     1695.0058    36     1693.3004 UserPurge2: 1     7336    0.10%
      0     0     1694.9965    36     1693.3004 UserPurge2: 1     7346    0.10%
      0     0     1694.9449    37     1693.3004 UserPurge2: 1     7367    0.10%
      0     0     1694.9140    37     1693.3004 UserPurge2: 1     7381    0.10%
      0     0     1694.9055    37     1693.3004 UserPurge2: 1     7385    0.09%
      0     0     1694.8953    35     1693.3004 UserPurge2: 1     7400    0.09%
      0     0     1694.8774    36     1693.3004 UserPurge2: 1     7419    0.09%
      0     0     1694.8580    35     1693.3004 UserPurge2: 1     7442    0.09%
      0     0     1694.8422    33     1693.3004 UserPurge2: 1     7456    0.09%
      0     0     1694.8223    32     1693.3004 UserPurge2: 1     7483    0.09%
      0     0     1694.8171    31     1693.3004 UserPurge2: 1     7496    0.09%
      0     0     1694.8146    32     1693.3004 UserPurge2: 1     7504    0.09%
      0     0     1694.8120    33     1693.3004 UserPurge2: 1     7511    0.09%
      0     0     1694.8069    32     1693.3004 UserPurge2: 1     7525    0.09%
      0     0     1694.8039    33     1693.3004 UserPurge2: 1     7531    0.09%
      0     0     1694.7936    33     1693.3004 UserPurge2: 1     7539    0.09%
      0     0     1694.7865    34     1693.3004 UserPurge2: 1     7547    0.09%
      0     0     1694.7737    33     1693.3004 UserPurge2: 1     7563    0.09%
      0     0     1694.7689    32     1693.3004 UserPurge2: 1     7574    0.09%
      0     0     1694.7590    33     1693.3004 UserPurge2: 1     7580    0.09%
      0     0     1694.7571    34     1693.3004 UserPurge2: 1     7583    0.09%
      0     0     1694.7467    33     1693.3004 UserPurge2: 1     7594    0.09%
      0     0     1694.7441    32     1693.3004 UserPurge2: 1     7602    0.09%
      0     0     1694.7329    33     1693.3004 UserPurge2: 1     7621    0.08%
      0     0     1694.7284    33     1693.3004 UserPurge2: 1     7628    0.08%
      0     0     1694.7220    34     1693.3004 UserPurge2: 1     7638    0.08%
      0     0     1694.7204    35     1693.3004 UserPurge2: 1     7643    0.08%
      0     0     1694.7165    36     1693.3004 UserPurge2: 1     7652    0.08%
      0     0     1694.7118    35     1693.3004 UserPurge2: 1     7665    0.08%
      0     0     1694.7053    35     1693.3004 UserPurge2: 1     7675    0.08%
      0     0     1694.7018    36     1693.3004 UserPurge2: 1     7684    0.08%
      0     0     1694.6941    37     1693.3004 UserPurge2: 1     7695    0.08%
      0     0     1694.6824    36     1693.3004 UserPurge2: 1     7710    0.08%
      0     0     1694.6797    37     1693.3004 UserPurge2: 1     7722    0.08%
      0     2     1694.6797    37     1693.3004     1694.6794     7722    0.08%
Elapsed time = 20.37 sec. (2279.18 ticks, tree = 0.01 MB, solutions = 6)
      1     1        cutoff           1693.3004     1694.6770    10808    0.08%

User cuts applied:  365

Root node processing (before b&c):
  Real time             =   20.37 sec. (2279.53 ticks)
Sequential b&c:
  Real time             =    5.50 sec. (592.99 ticks)
                          ------------
Total (root+branch&cut) =   25.87 sec. (2872.52 ticks)
@Parameters: 
is_S_cut                                true
is_add_all_yinF                         true
is_start_value                          true
is_usercut                              true
is_visualization                        false
uc_only_rootnode                        false

data                                    Qi
fn                                      data/Qi/instance_800_500.csv
mode                                    NewSubmodular
solver                                  cplex

p                                       10
r                                       50

EPS                                     1.0e-06
EPS_vio                                 1.0e-04
beta                                    0.10
gap                                     0.00
nodelimit                               Inf
timelimit                               7200.00


@PrintInfos
ItCnt: 11998
Current gap: 0.00 %
Termination Status: OPTIMAL
Primal Status: FEASIBLE_POINT
Solve Time: 25.87 sec
Objective Value: 1693.300381
Number of Nodes:      3

CutInfo: [phase] num / time (sec) 
ZLP             [phase1]     0 / 0.00 [rLC]     0 / 0.00 [rUC]     0 / 0.00 [sLC]     0 / 0.00 [sUC]     0 / 0.00 
OldSubmodular   [phase1]     0 / 0.00 [rLC]     0 / 0.00 [rUC]     0 / 0.00 [sLC]     0 / 0.00 [sUC]     0 / 0.00 
NewSubmodular   [phase1]     0 / 0.00 [rLC]    83 / 5.84 [rUC]   599 / 10.71 [sLC]     0 / 0.00 [sUC]   328 / 5.01 
PMP             [phase1]     0 / 0.00 [rLC]     8 / 3.31 [rUC]     0 / 0.00 [sLC]     0 / 0.00 [sUC]     0 / 0.00 
Separation Round: [phase1] 0  [rLC] 87  [rUC] 438  [sLC] 0  [sUC] 164
Root Best Bound 1693.300381
Root Best Integer: 1693.300381
Best Bound: 1693.300381
Best Integer: 1693.300381

